c CNF
c from Selman's wff generator
p cnf 200  1600
1.0 -160 171 0
1.0 150 -69 0
1.0 15 97 0
1.0 -32 56 0
1.0 -110 -40 0
1.0 20 153 0
1.0 118 169 0
1.0 -34 -93 0
1.0 63 60 0
1.0 -129 -135 0
1.0 32 79 0
1.0 -134 126 0
1.0 166 -126 0
1.0 78 -92 0
1.0 60 101 0
1.0 193 39 0
1.0 99 170 0
1.0 -105 -68 0
1.0 -147 187 0
1.0 -113 139 0
1.0 64 -154 0
1.0 -45 -106 0
1.0 -6 -24 0
1.0 62 -83 0
1.0 -53 -122 0
1.0 190 -157 0
1.0 144 91 0
1.0 -30 141 0
1.0 95 -197 0
1.0 102 -173 0
1.0 -196 41 0
1.0 124 -160 0
1.0 -81 5 0
1.0 162 -24 0
1.0 -115 -24 0
1.0 165 94 0
1.0 -90 -72 0
1.0 44 42 0
1.0 83 4 0
1.0 -163 115 0
1.0 -120 114 0
1.0 -137 121 0
1.0 -145 196 0
1.0 -33 -168 0
1.0 -166 120 0
1.0 18 188 0
1.0 -86 -96 0
1.0 -78 -28 0
1.0 -142 200 0
1.0 184 -179 0
1.0 -174 115 0
1.0 -83 95 0
1.0 15 58 0
1.0 45 -146 0
1.0 -42 -38 0
1.0 -66 49 0
1.0 49 36 0
1.0 -14 -76 0
1.0 -191 127 0
1.0 -22 103 0
1.0 160 176 0
1.0 -122 -135 0
1.0 65 -81 0
1.0 -190 32 0
1.0 101 -193 0
1.0 -153 27 0
1.0 -20 -40 0
1.0 161 -137 0
1.0 5 -85 0
1.0 20 -85 0
1.0 110 -197 0
1.0 158 -115 0
1.0 -155 -17 0
1.0 184 200 0
1.0 122 184 0
1.0 120 -25 0
1.0 -151 106 0
1.0 -190 -97 0
1.0 -186 -85 0
1.0 125 -95 0
1.0 -199 -36 0
1.0 35 -149 0
1.0 -133 86 0
1.0 110 45 0
1.0 151 -26 0
1.0 -122 -39 0
1.0 123 70 0
1.0 -165 -62 0
1.0 -98 -116 0
1.0 65 -11 0
1.0 96 46 0
1.0 91 78 0
1.0 -103 161 0
1.0 -200 -107 0
1.0 -177 -139 0
1.0 -1 160 0
1.0 76 -50 0
1.0 -60 -118 0
1.0 -164 185 0
1.0 63 -27 0
1.0 -188 -75 0
1.0 -182 -120 0
1.0 59 79 0
1.0 -39 -5 0
1.0 54 -185 0
1.0 103 189 0
1.0 -173 30 0
1.0 57 13 0
1.0 88 190 0
1.0 109 -138 0
1.0 16 127 0
1.0 -132 -182 0
1.0 167 20 0
1.0 -9 -167 0
1.0 196 52 0
1.0 65 -17 0
1.0 6 -125 0
1.0 62 49 0
1.0 -176 -107 0
1.0 89 99 0
1.0 -119 -189 0
1.0 -156 -57 0
1.0 109 -124 0
1.0 -140 -98 0
1.0 22 147 0
1.0 -195 -141 0
1.0 48 -93 0
1.0 -192 -168 0
1.0 157 -113 0
1.0 169 145 0
1.0 68 65 0
1.0 -163 -175 0
1.0 121 -12 0
1.0 152 -29 0
1.0 -122 -162 0
1.0 130 124 0
1.0 -37 59 0
1.0 3 59 0
1.0 124 133 0
1.0 108 31 0
1.0 -42 -138 0
1.0 -167 29 0
1.0 -191 -126 0
1.0 50 22 0
1.0 81 2 0
1.0 -61 -175 0
1.0 107 33 0
1.0 63 -141 0
1.0 79 185 0
1.0 -13 89 0
1.0 -15 132 0
1.0 -154 128 0
1.0 -130 -42 0
1.0 -16 -71 0
1.0 -103 -45 0
1.0 186 177 0
1.0 -161 -168 0
1.0 -57 40 0
1.0 -171 -100 0
1.0 -27 -84 0
1.0 -125 -75 0
1.0 146 121 0
1.0 166 -197 0
1.0 174 -84 0
1.0 -51 -123 0
1.0 -163 -86 0
1.0 185 112 0
1.0 -196 -16 0
1.0 90 114 0
1.0 35 -123 0
1.0 -120 97 0
1.0 181 166 0
1.0 -88 136 0
1.0 -21 116 0
1.0 28 42 0
1.0 -57 -185 0
1.0 -98 -5 0
1.0 -128 64 0
1.0 -161 -83 0
1.0 -48 -168 0
1.0 -103 -110 0
1.0 -25 170 0
1.0 11 145 0
1.0 129 19 0
1.0 -24 -193 0
1.0 -57 90 0
1.0 -172 138 0
1.0 -105 129 0
1.0 -38 140 0
1.0 -109 -59 0
1.0 -4 -188 0
1.0 -7 198 0
1.0 -191 117 0
1.0 7 -179 0
1.0 -116 21 0
1.0 149 -152 0
1.0 91 -159 0
1.0 -17 160 0
1.0 -148 -105 0
1.0 -103 110 0
1.0 -26 165 0
1.0 144 3 0
1.0 24 -7 0
1.0 -159 108 0
1.0 66 4 0
1.0 -164 -168 0
1.0 73 -54 0
1.0 163 -50 0
1.0 15 -8 0
1.0 11 31 0
1.0 38 -97 0
1.0 4 162 0
1.0 -166 -93 0
1.0 61 -53 0
1.0 -106 107 0
1.0 157 -175 0
1.0 -182 -78 0
1.0 108 -146 0
1.0 -42 30 0
1.0 -192 -185 0
1.0 78 -64 0
1.0 117 127 0
1.0 33 -178 0
1.0 -153 -148 0
1.0 -26 -89 0
1.0 34 152 0
1.0 -182 -19 0
1.0 -3 32 0
1.0 96 14 0
1.0 140 -88 0
1.0 -66 124 0
1.0 -72 121 0
1.0 9 80 0
1.0 -32 108 0
1.0 -127 -35 0
1.0 67 -113 0
1.0 -127 26 0
1.0 114 -7 0
1.0 -131 200 0
1.0 121 -152 0
1.0 -31 129 0
1.0 37 -87 0
1.0 122 -59 0
1.0 -172 100 0
1.0 -125 124 0
1.0 130 5 0
1.0 5 -16 0
1.0 167 -161 0
1.0 89 -25 0
1.0 112 135 0
1.0 194 -178 0
1.0 77 172 0
1.0 95 30 0
1.0 34 58 0
1.0 -73 146 0
1.0 107 -17 0
1.0 -42 -98 0
1.0 -32 6 0
1.0 -184 8 0
1.0 179 53 0
1.0 82 -101 0
1.0 -158 181 0
1.0 127 116 0
1.0 133 -108 0
1.0 -5 147 0
1.0 153 -112 0
1.0 -119 49 0
1.0 -102 -57 0
1.0 157 -66 0
1.0 -46 -53 0
1.0 168 -16 0
1.0 123 -33 0
1.0 -179 -200 0
1.0 112 24 0
1.0 -73 -62 0
1.0 -118 97 0
1.0 -162 57 0
1.0 -109 134 0
1.0 -149 185 0
1.0 -17 -51 0
1.0 -50 -163 0
1.0 -186 193 0
1.0 54 -118 0
1.0 14 -189 0
1.0 -45 -34 0
1.0 167 -164 0
1.0 -148 -7 0
1.0 -57 -186 0
1.0 148 -87 0
1.0 -80 -58 0
1.0 -176 -21 0
1.0 -10 149 0
1.0 183 -148 0
1.0 112 37 0
1.0 44 51 0
1.0 36 -185 0
1.0 -72 -73 0
1.0 130 -105 0
1.0 126 -188 0
1.0 -136 -59 0
1.0 7 -196 0
1.0 -33 131 0
1.0 -182 1 0
1.0 -185 181 0
1.0 53 -115 0
1.0 20 -90 0
1.0 77 181 0
1.0 -40 69 0
1.0 -65 197 0
1.0 -128 -140 0
1.0 -140 -149 0
1.0 -130 -125 0
1.0 -40 186 0
1.0 76 -53 0
1.0 -34 85 0
1.0 -154 94 0
1.0 -91 82 0
1.0 -22 -89 0
1.0 38 -52 0
1.0 -177 65 0
1.0 51 -116 0
1.0 169 80 0
1.0 164 -41 0
1.0 -135 193 0
1.0 75 51 0
1.0 140 -169 0
1.0 -21 -142 0
1.0 7 96 0
1.0 -12 -88 0
1.0 -167 -61 0
1.0 102 56 0
1.0 49 -183 0
1.0 34 -102 0
1.0 -71 76 0
1.0 18 96 0
1.0 191 99 0
1.0 -187 -65 0
1.0 126 164 0
1.0 20 131 0
1.0 -114 -122 0
1.0 -24 12 0
1.0 -88 -70 0
1.0 -165 -71 0
1.0 -170 -10 0
1.0 -75 -140 0
1.0 103 -192 0
1.0 -122 88 0
1.0 -10 183 0
1.0 -194 102 0
1.0 -171 -109 0
1.0 180 -114 0
1.0 -124 -48 0
1.0 -187 12 0
1.0 3 -24 0
1.0 -112 -3 0
1.0 -185 -142 0
1.0 43 78 0
1.0 -187 -44 0
1.0 -158 39 0
1.0 86 18 0
1.0 -30 76 0
1.0 -100 175 0
1.0 -177 -118 0
1.0 -60 -84 0
1.0 -162 -199 0
1.0 -43 -64 0
1.0 103 -29 0
1.0 46 159 0
1.0 -35 -22 0
1.0 -196 -66 0
1.0 -184 76 0
1.0 -159 -74 0
1.0 73 -61 0
1.0 -125 183 0
1.0 11 194 0
1.0 -153 -75 0
1.0 -97 41 0
1.0 106 65 0
1.0 -141 199 0
1.0 73 -77 0
1.0 138 88 0
1.0 71 173 0
1.0 -166 -104 0
1.0 -178 70 0
1.0 -110 25 0
1.0 -90 30 0
1.0 -29 -36 0
1.0 112 149 0
1.0 -37 -104 0
1.0 -76 1 0
1.0 -104 125 0
1.0 -195 -64 0
1.0 -88 -120 0
1.0 150 -24 0
1.0 59 -136 0
1.0 84 -124 0
1.0 27 -131 0
1.0 -131 14 0
1.0 -139 -102 0
1.0 165 70 0
1.0 190 -157 0
1.0 -180 36 0
1.0 172 197 0
1.0 -121 -29 0
1.0 160 2 0
1.0 -15 -192 0
1.0 93 39 0
1.0 -108 123 0
1.0 79 138 0
1.0 174 -154 0
1.0 -151 107 0
1.0 135 175 0
1.0 -176 -66 0
1.0 -57 -108 0
1.0 146 29 0
1.0 -151 115 0
1.0 52 186 0
1.0 -140 185 0
1.0 -91 171 0
1.0 -145 -177 0
1.0 -43 104 0
1.0 11 -54 0
1.0 83 54 0
1.0 168 159 0
1.0 145 150 0
1.0 -134 16 0
1.0 186 -133 0
1.0 109 -170 0
1.0 73 162 0
1.0 16 98 0
1.0 -152 -49 0
1.0 -7 -193 0
1.0 143 185 0
1.0 -200 -8 0
1.0 -140 151 0
1.0 -120 -167 0
1.0 128 -50 0
1.0 148 116 0
1.0 164 -172 0
1.0 -165 -157 0
1.0 -141 -156 0
1.0 -163 -83 0
1.0 -34 -40 0
1.0 -6 -152 0
1.0 2 -22 0
1.0 137 -118 0
1.0 89 64 0
1.0 -20 -191 0
1.0 146 -142 0
1.0 25 24 0
1.0 64 163 0
1.0 115 -158 0
1.0 180 -80 0
1.0 197 110 0
1.0 -174 -87 0
1.0 -77 99 0
1.0 -40 53 0
1.0 -76 -143 0
1.0 106 134 0
1.0 -91 11 0
1.0 -90 199 0
1.0 -109 3 0
1.0 89 -111 0
1.0 -9 28 0
1.0 -80 -119 0
1.0 61 -36 0
1.0 -170 103 0
1.0 -114 121 0
1.0 119 118 0
1.0 -120 62 0
1.0 -173 -184 0
1.0 11 162 0
1.0 80 -143 0
1.0 -179 -140 0
1.0 43 -92 0
1.0 -12 -139 0
1.0 -56 -49 0
1.0 -111 66 0
1.0 49 158 0
1.0 -119 -93 0
1.0 -35 195 0
1.0 -135 -46 0
1.0 -137 -169 0
1.0 107 -93 0
1.0 -142 36 0
1.0 -102 -121 0
1.0 79 -198 0
1.0 -90 -159 0
1.0 -153 135 0
1.0 181 -98 0
1.0 66 -198 0
1.0 -91 145 0
1.0 181 72 0
1.0 193 18 0
1.0 15 -41 0
1.0 199 -64 0
1.0 199 -167 0
1.0 65 -105 0
1.0 -103 -163 0
1.0 108 37 0
1.0 108 -170 0
1.0 -2 171 0
1.0 39 -44 0
1.0 -73 194 0
1.0 -33 -80 0
1.0 176 -33 0
1.0 135 -32 0
1.0 55 -133 0
1.0 103 -178 0
1.0 -149 -26 0
1.0 70 -188 0
1.0 -182 189 0
1.0 -68 85 0
1.0 -118 189 0
1.0 21 26 0
1.0 158 103 0
1.0 -80 124 0
1.0 150 112 0
1.0 -99 103 0
1.0 91 -144 0
1.0 29 -44 0
1.0 -33 183 0
1.0 -8 -24 0
1.0 126 166 0
1.0 89 191 0
1.0 102 48 0
1.0 150 20 0
1.0 -164 -174 0
1.0 -18 200 0
1.0 -183 -138 0
1.0 -161 32 0
1.0 197 181 0
1.0 -172 125 0
1.0 172 -182 0
1.0 -2 -153 0
1.0 -127 -161 0
1.0 -161 -96 0
1.0 -34 -98 0
1.0 129 -88 0
1.0 69 172 0
1.0 -96 134 0
1.0 -116 -185 0
1.0 137 151 0
1.0 112 39 0
1.0 135 -2 0
1.0 -99 147 0
1.0 -35 -43 0
1.0 -15 -163 0
1.0 -96 54 0
1.0 -38 -167 0
1.0 118 10 0
1.0 -48 -45 0
1.0 -46 -116 0
1.0 -62 113 0
1.0 -156 -125 0
1.0 87 -141 0
1.0 -194 57 0
1.0 24 -121 0
1.0 -130 -43 0
1.0 -88 -71 0
1.0 186 111 0
1.0 -24 -50 0
1.0 -175 142 0
1.0 83 29 0
1.0 -86 -38 0
1.0 159 114 0
1.0 157 20 0
1.0 -90 26 0
1.0 -137 -54 0
1.0 -104 67 0
1.0 -9 88 0
1.0 -117 183 0
1.0 -21 -75 0
1.0 188 -160 0
1.0 -180 132 0
1.0 -158 165 0
1.0 18 -69 0
1.0 -135 -192 0
1.0 80 -138 0
1.0 -120 -2 0
1.0 -77 108 0
1.0 68 185 0
1.0 -116 197 0
1.0 -161 -61 0
1.0 129 20 0
1.0 12 98 0
1.0 35 -42 0
1.0 44 -85 0
1.0 -192 14 0
1.0 -198 -192 0
1.0 -188 -21 0
1.0 -82 153 0
1.0 172 -26 0
1.0 124 -81 0
1.0 -123 -161 0
1.0 45 8 0
1.0 21 69 0
1.0 -60 1 0
1.0 -22 -118 0
1.0 -70 123 0
1.0 148 187 0
1.0 67 -98 0
1.0 -58 -142 0
1.0 -150 -39 0
1.0 -107 -34 0
1.0 35 120 0
1.0 -37 -11 0
1.0 -134 73 0
1.0 -59 -172 0
1.0 -69 -181 0
1.0 123 69 0
1.0 108 167 0
1.0 -1 30 0
1.0 149 -196 0
1.0 7 -52 0
1.0 125 -40 0
1.0 -11 174 0
1.0 155 24 0
1.0 -93 -34 0
1.0 1 190 0
1.0 19 -196 0
1.0 -192 -129 0
1.0 -181 -46 0
1.0 85 160 0
1.0 -133 197 0
1.0 -21 -181 0
1.0 -15 112 0
1.0 102 -127 0
1.0 123 -54 0
1.0 -183 -41 0
1.0 87 -51 0
1.0 10 -156 0
1.0 153 -43 0
1.0 23 193 0
1.0 105 198 0
1.0 -125 70 0
1.0 -124 -13 0
1.0 54 -73 0
1.0 -123 -136 0
1.0 92 179 0
1.0 21 104 0
1.0 97 101 0
1.0 99 134 0
1.0 3 -131 0
1.0 144 -31 0
1.0 -104 101 0
1.0 -36 -50 0
1.0 -28 33 0
1.0 137 187 0
1.0 87 -172 0
1.0 105 -39 0
1.0 170 -79 0
1.0 -110 66 0
1.0 166 49 0
1.0 -98 -198 0
1.0 -31 -100 0
1.0 -86 -64 0
1.0 -36 -33 0
1.0 72 166 0
1.0 -45 -81 0
1.0 -147 -66 0
1.0 -115 5 0
1.0 -2 42 0
1.0 -141 111 0
1.0 -175 199 0
1.0 -32 -156 0
1.0 -122 -197 0
1.0 -78 99 0
1.0 -164 85 0
1.0 90 48 0
1.0 -89 28 0
1.0 138 -123 0
1.0 -121 -52 0
1.0 7 -71 0
1.0 67 -198 0
1.0 -97 13 0
1.0 -97 -103 0
1.0 151 28 0
1.0 55 -1 0
1.0 -123 122 0
1.0 -174 -25 0
1.0 -96 -49 0
1.0 -47 -3 0
1.0 15 -75 0
1.0 178 -140 0
1.0 -167 175 0
1.0 175 35 0
1.0 -157 -117 0
1.0 -142 134 0
1.0 -182 20 0
1.0 -23 105 0
1.0 -179 -174 0
1.0 113 47 0
1.0 -21 -50 0
1.0 85 113 0
1.0 -30 -31 0
1.0 164 -82 0
1.0 -102 -5 0
1.0 -110 146 0
1.0 119 110 0
1.0 -156 -127 0
1.0 -177 11 0
1.0 -124 -63 0
1.0 -94 73 0
1.0 155 130 0
1.0 -134 178 0
1.0 -123 141 0
1.0 51 175 0
1.0 -101 184 0
1.0 -195 -153 0
1.0 16 -40 0
1.0 -112 194 0
1.0 -123 168 0
1.0 -146 102 0
1.0 -43 31 0
1.0 6 -183 0
1.0 -167 -80 0
1.0 33 121 0
1.0 -160 151 0
1.0 -145 121 0
1.0 -89 59 0
1.0 -161 25 0
1.0 56 11 0
1.0 -194 167 0
1.0 -150 122 0
1.0 1 -153 0
1.0 109 102 0
1.0 -39 164 0
1.0 88 -150 0
1.0 -51 62 0
1.0 157 -27 0
1.0 194 -15 0
1.0 136 -130 0
1.0 83 -44 0
1.0 145 -184 0
1.0 147 135 0
1.0 -85 -140 0
1.0 -1 -112 0
1.0 -139 -51 0
1.0 65 132 0
1.0 -62 -89 0
1.0 -132 24 0
1.0 8 -153 0
1.0 -87 -141 0
1.0 -80 134 0
1.0 46 -104 0
1.0 -155 145 0
1.0 77 -192 0
1.0 80 156 0
1.0 180 -15 0
1.0 -167 147 0
1.0 88 -129 0
1.0 62 -133 0
1.0 36 -84 0
1.0 29 -9 0
1.0 200 30 0
1.0 185 -124 0
1.0 -139 -178 0
1.0 -125 91 0
1.0 -19 185 0
1.0 -117 -25 0
1.0 -109 -81 0
1.0 89 152 0
1.0 -182 -84 0
1.0 -8 -58 0
1.0 36 -81 0
1.0 -171 -10 0
1.0 194 -151 0
1.0 176 59 0
1.0 140 5 0
1.0 -157 -62 0
1.0 -146 -84 0
1.0 142 -34 0
1.0 -114 150 0
1.0 160 -110 0
1.0 61 144 0
1.0 -3 -127 0
1.0 -131 142 0
1.0 3 -86 0
1.0 -169 -128 0
1.0 161 1 0
1.0 -151 -26 0
1.0 136 -31 0
1.0 175 -128 0
1.0 -54 -153 0
1.0 94 89 0
1.0 174 -96 0
1.0 23 -147 0
1.0 147 141 0
1.0 166 -16 0
1.0 47 70 0
1.0 -198 129 0
1.0 82 -117 0
1.0 6 -107 0
1.0 -2 118 0
1.0 64 175 0
1.0 -115 67 0
1.0 -82 -112 0
1.0 -182 -78 0
1.0 7 148 0
1.0 64 67 0
1.0 173 -137 0
1.0 -54 -169 0
1.0 -143 8 0
1.0 -74 -33 0
1.0 145 -119 0
1.0 -197 32 0
1.0 179 137 0
1.0 -3 -156 0
1.0 -92 -160 0
1.0 129 149 0
1.0 -157 190 0
1.0 -22 -67 0
1.0 186 -69 0
1.0 -100 199 0
1.0 -136 -76 0
1.0 -31 -34 0
1.0 194 -65 0
1.0 -13 -131 0
1.0 -120 -123 0
1.0 -190 -185 0
1.0 -53 -2 0
1.0 200 -141 0
1.0 17 153 0
1.0 -187 -188 0
1.0 -52 37 0
1.0 167 95 0
1.0 17 34 0
1.0 -18 137 0
1.0 138 -137 0
1.0 78 53 0
1.0 -6 -147 0
1.0 -135 -110 0
1.0 146 -74 0
1.0 -168 -85 0
1.0 -118 -28 0
1.0 165 -172 0
1.0 109 -27 0
1.0 80 114 0
1.0 60 -21 0
1.0 -130 49 0
1.0 -122 30 0
1.0 114 186 0
1.0 -14 -66 0
1.0 37 -171 0
1.0 -198 121 0
1.0 -35 12 0
1.0 33 -39 0
1.0 88 67 0
1.0 96 24 0
1.0 10 173 0
1.0 39 7 0
1.0 178 -82 0
1.0 3 153 0
1.0 -164 -13 0
1.0 -51 -17 0
1.0 -84 -194 0
1.0 -17 46 0
1.0 19 29 0
1.0 -36 49 0
1.0 -131 -153 0
1.0 -105 40 0
1.0 52 -99 0
1.0 116 -21 0
1.0 -15 188 0
1.0 33 166 0
1.0 -195 105 0
1.0 154 39 0
1.0 191 32 0
1.0 -72 -186 0
1.0 84 -27 0
1.0 -48 67 0
1.0 54 177 0
1.0 -143 -149 0
1.0 -54 44 0
1.0 82 12 0
1.0 -44 -108 0
1.0 93 -129 0
1.0 -155 63 0
1.0 129 -175 0
1.0 151 156 0
1.0 105 -5 0
1.0 -48 -197 0
1.0 9 57 0
1.0 -164 167 0
1.0 95 3 0
1.0 66 -10 0
1.0 -184 -115 0
1.0 70 -45 0
1.0 -50 57 0
1.0 54 99 0
1.0 -155 -26 0
1.0 -193 80 0
1.0 -82 -9 0
1.0 -18 188 0
1.0 -102 -119 0
1.0 -164 163 0
1.0 -20 79 0
1.0 -177 -135 0
1.0 161 -48 0
1.0 127 25 0
1.0 -33 176 0
1.0 163 98 0
1.0 17 -187 0
1.0 -149 -182 0
1.0 60 102 0
1.0 -36 -176 0
1.0 -23 -16 0
1.0 -41 189 0
1.0 -164 -116 0
1.0 -14 175 0
1.0 162 -27 0
1.0 8 2 0
1.0 -103 -118 0
1.0 -93 -69 0
1.0 85 -83 0
1.0 -71 25 0
1.0 -140 -123 0
1.0 -98 153 0
1.0 -180 -192 0
1.0 193 46 0
1.0 164 157 0
1.0 -26 -167 0
1.0 50 -39 0
1.0 -63 34 0
1.0 -156 117 0
1.0 -70 139 0
1.0 130 -79 0
1.0 125 91 0
1.0 -48 50 0
1.0 -16 117 0
1.0 -155 17 0
1.0 51 139 0
1.0 56 -176 0
1.0 -114 170 0
1.0 -49 -10 0
1.0 100 -182 0
1.0 31 5 0
1.0 -122 1 0
1.0 18 95 0
1.0 34 113 0
1.0 88 134 0
1.0 104 -187 0
1.0 -196 10 0
1.0 192 187 0
1.0 192 -61 0
1.0 -62 179 0
1.0 -73 -81 0
1.0 -193 22 0
1.0 155 8 0
1.0 194 -127 0
1.0 137 -135 0
1.0 -121 -127 0
1.0 187 17 0
1.0 -196 13 0
1.0 -93 76 0
1.0 -97 169 0
1.0 -176 -49 0
1.0 -176 -118 0
1.0 53 -44 0
1.0 170 -189 0
1.0 6 111 0
1.0 123 133 0
1.0 -8 -42 0
1.0 -11 -67 0
1.0 -116 64 0
1.0 182 115 0
1.0 159 -43 0
1.0 32 93 0
1.0 3 -89 0
1.0 -22 106 0
1.0 -148 -41 0
1.0 -108 88 0
1.0 -152 -100 0
1.0 -15 -117 0
1.0 -160 -174 0
1.0 67 185 0
1.0 -74 65 0
1.0 -171 -135 0
1.0 176 57 0
1.0 -145 20 0
1.0 120 -20 0
1.0 -137 194 0
1.0 168 8 0
1.0 -193 114 0
1.0 -179 -98 0
1.0 33 85 0
1.0 141 142 0
1.0 -162 197 0
1.0 17 -8 0
1.0 1 -122 0
1.0 129 -136 0
1.0 -50 105 0
1.0 -2 148 0
1.0 32 -42 0
1.0 184 -132 0
1.0 129 -38 0
1.0 45 41 0
1.0 162 147 0
1.0 83 -15 0
1.0 -119 -199 0
1.0 -146 -135 0
1.0 -177 -196 0
1.0 -128 8 0
1.0 45 132 0
1.0 -172 -99 0
1.0 45 -147 0
1.0 162 37 0
1.0 35 -18 0
1.0 -153 -156 0
1.0 152 108 0
1.0 -115 -195 0
1.0 127 136 0
1.0 34 182 0
1.0 129 57 0
1.0 -93 -65 0
1.0 -83 172 0
1.0 -127 65 0
1.0 -173 53 0
1.0 48 -93 0
1.0 29 94 0
1.0 -75 104 0
1.0 160 146 0
1.0 -11 63 0
1.0 -34 -86 0
1.0 150 -92 0
1.0 145 -196 0
1.0 -89 -57 0
1.0 -150 38 0
1.0 141 -118 0
1.0 -64 121 0
1.0 -183 130 0
1.0 -16 -96 0
1.0 187 -16 0
1.0 -12 97 0
1.0 154 -89 0
1.0 -127 194 0
1.0 -112 -156 0
1.0 77 119 0
1.0 49 17 0
1.0 112 53 0
1.0 69 116 0
1.0 -13 -153 0
1.0 42 -196 0
1.0 189 -197 0
1.0 153 2 0
1.0 121 -126 0
1.0 143 164 0
1.0 -17 61 0
1.0 -177 -183 0
1.0 -136 -145 0
1.0 -140 -25 0
1.0 21 -180 0
1.0 181 -106 0
1.0 31 -90 0
1.0 54 103 0
1.0 -164 -181 0
1.0 -164 120 0
1.0 64 85 0
1.0 -109 -21 0
1.0 -200 -162 0
1.0 67 105 0
1.0 195 152 0
1.0 -54 99 0
1.0 -79 72 0
1.0 -192 87 0
1.0 172 16 0
1.0 36 191 0
1.0 152 114 0
1.0 -18 97 0
1.0 49 -186 0
1.0 -84 -178 0
1.0 50 78 0
1.0 165 -145 0
1.0 160 -154 0
1.0 144 27 0
1.0 -140 -47 0
1.0 -144 -30 0
1.0 16 31 0
1.0 8 14 0
1.0 91 66 0
1.0 -11 -193 0
1.0 -146 8 0
1.0 -34 -197 0
1.0 -43 -100 0
1.0 -129 -101 0
1.0 131 -72 0
1.0 -85 -105 0
1.0 171 -93 0
1.0 -86 22 0
1.0 -29 118 0
1.0 114 -106 0
1.0 -5 -166 0
1.0 66 -119 0
1.0 -190 120 0
1.0 25 -131 0
1.0 -24 -81 0
1.0 -102 -129 0
1.0 -46 -60 0
1.0 -165 -27 0
1.0 -192 58 0
1.0 177 -178 0
1.0 98 -189 0
1.0 -119 -92 0
1.0 172 95 0
1.0 23 190 0
1.0 49 197 0
1.0 -23 144 0
1.0 1 -83 0
1.0 -61 -125 0
1.0 114 185 0
1.0 -76 198 0
1.0 -92 -24 0
1.0 -13 126 0
1.0 122 -10 0
1.0 -154 -56 0
1.0 -138 -31 0
1.0 -156 75 0
1.0 59 -36 0
1.0 -33 -74 0
1.0 98 -104 0
1.0 -29 -22 0
1.0 32 -46 0
1.0 -101 54 0
1.0 85 69 0
1.0 -143 191 0
1.0 -26 8 0
1.0 -81 -117 0
1.0 20 22 0
1.0 -43 59 0
1.0 105 95 0
1.0 148 197 0
1.0 66 78 0
1.0 68 179 0
1.0 -186 145 0
1.0 62 134 0
1.0 -155 -131 0
1.0 190 129 0
1.0 23 -130 0
1.0 127 -141 0
1.0 -18 74 0
1.0 -53 9 0
1.0 -154 129 0
1.0 62 148 0
1.0 79 25 0
1.0 -154 -85 0
1.0 -14 -60 0
1.0 -1 150 0
1.0 -24 132 0
1.0 -141 82 0
1.0 -11 17 0
1.0 165 4 0
1.0 -28 -101 0
1.0 -186 -72 0
1.0 -132 -104 0
1.0 -54 71 0
1.0 -3 -53 0
1.0 135 -65 0
1.0 82 145 0
1.0 148 -104 0
1.0 -5 -198 0
1.0 -70 114 0
1.0 -18 128 0
1.0 -199 81 0
1.0 -134 99 0
1.0 164 180 0
1.0 124 28 0
1.0 131 -179 0
1.0 -177 4 0
1.0 118 -113 0
1.0 41 178 0
1.0 59 -152 0
1.0 50 182 0
1.0 162 71 0
1.0 -98 149 0
1.0 -128 -4 0
1.0 -7 -88 0
1.0 1 196 0
1.0 173 64 0
1.0 16 118 0
1.0 100 82 0
1.0 -153 136 0
1.0 85 103 0
1.0 -106 -43 0
1.0 131 -65 0
1.0 -60 95 0
1.0 159 -51 0
1.0 169 86 0
1.0 -168 -117 0
1.0 -53 -77 0
1.0 -179 49 0
1.0 -92 63 0
1.0 -128 -34 0
1.0 129 125 0
1.0 175 -84 0
1.0 170 -99 0
1.0 16 143 0
1.0 19 -27 0
1.0 76 -152 0
1.0 -15 -79 0
1.0 -113 140 0
1.0 -64 150 0
1.0 -33 188 0
1.0 -86 -195 0
1.0 -138 -197 0
1.0 -24 173 0
1.0 124 -35 0
1.0 114 53 0
1.0 193 9 0
1.0 159 -195 0
1.0 -182 78 0
1.0 -72 134 0
1.0 -130 -137 0
1.0 110 118 0
1.0 -152 116 0
1.0 168 -50 0
1.0 59 159 0
1.0 153 -111 0
1.0 188 2 0
1.0 135 170 0
1.0 107 34 0
1.0 151 -69 0
1.0 -184 -19 0
1.0 -69 -60 0
1.0 -19 -127 0
1.0 -38 152 0
1.0 154 107 0
1.0 -77 -154 0
1.0 -187 -170 0
1.0 38 48 0
1.0 -67 -8 0
1.0 68 84 0
1.0 10 8 0
1.0 159 -161 0
1.0 67 -158 0
1.0 -111 153 0
1.0 122 -126 0
1.0 -174 74 0
1.0 -81 -152 0
1.0 35 39 0
1.0 46 90 0
1.0 -50 -164 0
1.0 121 117 0
1.0 -69 -187 0
1.0 -112 163 0
1.0 -36 -129 0
1.0 81 -101 0
1.0 -139 -98 0
1.0 -187 52 0
1.0 -16 -106 0
1.0 -22 14 0
1.0 200 -97 0
1.0 -59 31 0
1.0 160 122 0
1.0 -22 -77 0
1.0 -174 -116 0
1.0 -167 -133 0
1.0 -38 151 0
1.0 -164 -87 0
1.0 183 32 0
1.0 -62 71 0
1.0 192 148 0
1.0 -24 -17 0
1.0 -132 118 0
1.0 51 155 0
1.0 -105 200 0
1.0 86 98 0
1.0 -130 -106 0
1.0 177 -47 0
1.0 -195 74 0
1.0 90 156 0
1.0 -73 -174 0
1.0 129 200 0
1.0 -200 159 0
1.0 -57 -134 0
1.0 -40 65 0
1.0 -112 -190 0
1.0 -64 -166 0
1.0 -121 -141 0
1.0 -115 94 0
1.0 94 128 0
1.0 -86 -179 0
1.0 -112 -133 0
1.0 -197 -106 0
1.0 95 -151 0
1.0 -116 139 0
1.0 80 -86 0
1.0 179 147 0
1.0 -74 -113 0
1.0 -91 144 0
1.0 -76 30 0
1.0 -135 119 0
1.0 -69 -196 0
1.0 134 98 0
1.0 183 -51 0
1.0 198 43 0
1.0 155 200 0
1.0 143 131 0
1.0 160 200 0
1.0 -119 -73 0
1.0 -68 110 0
1.0 8 -194 0
1.0 -45 21 0
1.0 -64 186 0
1.0 185 -142 0
1.0 -73 112 0
1.0 -112 38 0
1.0 110 -49 0
1.0 -158 -190 0
1.0 -183 193 0
1.0 14 107 0
1.0 93 180 0
1.0 122 -160 0
1.0 71 -152 0
1.0 189 152 0
1.0 200 -30 0
1.0 -19 54 0
1.0 46 78 0
1.0 -185 97 0
1.0 -77 -32 0
1.0 -191 159 0
1.0 110 17 0
1.0 -168 -55 0
1.0 -84 -73 0
1.0 -126 -47 0
1.0 125 -133 0
1.0 -29 -167 0
1.0 -199 -138 0
1.0 97 94 0
1.0 -111 94 0
1.0 149 102 0
1.0 -175 -169 0
1.0 16 -38 0
1.0 170 -103 0
1.0 -70 33 0
1.0 171 7 0
1.0 100 108 0
1.0 2 -178 0
1.0 -79 132 0
1.0 -101 -115 0
1.0 153 -25 0
1.0 -128 -104 0
1.0 136 -25 0
1.0 -31 -123 0
1.0 -31 45 0
1.0 -22 -29 0
1.0 -160 162 0
1.0 -77 107 0
1.0 -132 32 0
1.0 135 74 0
1.0 -99 -121 0
1.0 44 149 0
1.0 -194 1 0
1.0 -29 -86 0
1.0 48 -70 0
1.0 -177 -25 0
1.0 -57 -106 0
1.0 180 23 0
1.0 144 -38 0
1.0 187 -67 0
1.0 -68 165 0
1.0 50 111 0
1.0 180 -134 0
1.0 159 176 0
1.0 82 32 0
1.0 -55 -68 0
1.0 -105 145 0
1.0 11 45 0
1.0 -10 66 0
1.0 -176 -58 0
1.0 -192 -179 0
1.0 -154 176 0
1.0 7 170 0
1.0 38 -33 0
1.0 177 -44 0
1.0 89 104 0
1.0 -170 -38 0
1.0 -96 115 0
1.0 93 12 0
1.0 188 -1 0
1.0 171 175 0
1.0 -7 -115 0
1.0 -159 183 0
1.0 -87 33 0
1.0 71 -104 0
1.0 18 -102 0
1.0 -113 -88 0
1.0 89 35 0
1.0 9 151 0
1.0 -66 16 0
1.0 199 166 0
1.0 -199 17 0
1.0 120 -143 0
1.0 44 -87 0
1.0 175 2 0
1.0 -36 153 0
1.0 103 -187 0
1.0 -3 57 0
1.0 23 62 0
1.0 78 -28 0
1.0 -171 125 0
1.0 -11 -180 0
1.0 181 28 0
1.0 180 168 0
1.0 155 -120 0
1.0 -177 -42 0
1.0 104 -43 0
1.0 -71 111 0
1.0 36 112 0
1.0 91 25 0
1.0 53 78 0
1.0 -46 -147 0
1.0 -66 166 0
1.0 8 -114 0
1.0 157 62 0
1.0 173 70 0
1.0 181 122 0
1.0 -147 -86 0
1.0 164 27 0
1.0 173 148 0
1.0 114 -165 0
1.0 78 123 0
1.0 185 -123 0
1.0 -192 -128 0
1.0 50 -19 0
1.0 -104 184 0
1.0 11 -28 0
1.0 176 84 0
1.0 49 -104 0
1.0 -26 40 0
1.0 -162 -20 0
1.0 -148 -132 0
1.0 -151 170 0
1.0 -154 -189 0
1.0 -17 -197 0
1.0 81 -170 0
1.0 73 88 0
1.0 -128 15 0
1.0 35 -76 0
1.0 -8 -170 0
1.0 139 172 0
1.0 161 -133 0
1.0 -130 4 0
1.0 -173 47 0
1.0 -135 194 0
1.0 -8 54 0
1.0 129 -195 0
1.0 164 -4 0
1.0 -176 -106 0
1.0 -38 -51 0
1.0 -54 80 0
1.0 126 115 0
1.0 -109 -17 0
1.0 -71 -75 0
1.0 -69 183 0
1.0 -186 -29 0
1.0 135 -128 0
1.0 -178 9 0
1.0 88 116 0
1.0 31 -131 0
1.0 148 198 0
1.0 72 -13 0
1.0 -196 -152 0
1.0 -181 -105 0
1.0 32 40 0
1.0 48 -26 0
1.0 -142 -98 0
1.0 -28 -23 0
1.0 -20 166 0
1.0 179 -9 0
1.0 -160 -1 0
1.0 105 -99 0
1.0 -138 -141 0
1.0 -167 -185 0
1.0 82 -68 0
1.0 90 -191 0
1.0 -157 -76 0
1.0 -84 29 0
1.0 -30 -65 0
1.0 163 -38 0
1.0 178 -16 0
1.0 200 5 0
1.0 -72 -132 0
1.0 123 75 0
1.0 151 69 0
1.0 97 -123 0
1.0 187 -61 0
1.0 98 131 0
1.0 146 -135 0
1.0 139 71 0
1.0 -2 -18 0
1.0 92 41 0
1.0 109 16 0
1.0 -138 -154 0
1.0 14 -193 0
1.0 -123 124 0
1.0 59 -5 0
1.0 76 41 0
1.0 58 -180 0
1.0 -20 -4 0
1.0 -20 -68 0
1.0 21 65 0
1.0 -58 -157 0
1.0 81 -132 0
1.0 -137 63 0
1.0 104 -144 0
1.0 -124 -91 0
1.0 94 -102 0
1.0 170 -5 0
1.0 70 -153 0
1.0 -110 -170 0
1.0 -101 155 0
1.0 18 -65 0
1.0 9 -138 0
1.0 28 -192 0
1.0 94 146 0
1.0 150 106 0
1.0 -59 -77 0
1.0 -46 -51 0
1.0 -6 86 0
1.0 -151 -32 0
1.0 169 -25 0
1.0 -17 -166 0
1.0 -111 152 0
1.0 57 -25 0
1.0 101 -24 0
1.0 74 40 0
1.0 -126 76 0
1.0 107 46 0
1.0 71 127 0
1.0 -93 187 0
1.0 138 -169 0
1.0 -193 142 0
1.0 165 192 0
1.0 -31 -132 0
1.0 8 -20 0
1.0 -66 -69 0
1.0 196 59 0
1.0 45 -21 0
1.0 -190 -155 0
1.0 96 86 0
1.0 77 -115 0
1.0 47 16 0
1.0 -36 -97 0
1.0 166 -156 0
1.0 14 61 0
1.0 81 140 0
1.0 94 -19 0
1.0 104 -129 0
1.0 43 148 0
1.0 -164 -152 0
1.0 -49 111 0
1.0 -67 138 0
1.0 -198 23 0
1.0 -163 181 0
1.0 199 -2 0
1.0 130 -94 0
1.0 42 171 0
1.0 122 -6 0
1.0 -116 -105 0
1.0 42 159 0
1.0 -182 -1 0
1.0 -181 -68 0
1.0 69 -45 0
1.0 -139 -165 0
1.0 -135 33 0
1.0 38 -189 0
1.0 -93 -12 0
1.0 -171 -197 0
1.0 197 -92 0
1.0 -159 96 0
1.0 140 40 0
1.0 4 -196 0
1.0 -29 41 0
1.0 30 -22 0
1.0 34 154 0
1.0 -151 -29 0
1.0 -121 51 0
1.0 -146 82 0
1.0 -121 -132 0
1.0 128 -20 0
1.0 61 57 0
1.0 79 -42 0
1.0 -195 -67 0
1.0 96 71 0
1.0 121 17 0
1.0 -98 200 0
1.0 -132 115 0
1.0 134 -5 0
1.0 62 -37 0
1.0 78 96 0
1.0 162 168 0
1.0 38 -109 0
1.0 126 166 0
1.0 166 177 0
1.0 -91 184 0
1.0 189 171 0
1.0 -7 104 0
1.0 -199 -44 0
1.0 11 174 0
